!PBE D3 def2-QZVPP

%pal nprocs 8 end

*xyz 0 1
H          3.1195355369        0.1136142663       -2.3834315169
C          3.0034663256        1.9510904743        0.2300951834
H          2.4336288203        2.5568662738        0.9223531944
H          2.8788711090        2.3415571728       -0.7695298620
H          4.0506167548        1.9916761637        0.5001026102
C          0.3505844026        0.3619169782       -0.7998698991
H         -0.2843088629        0.9486643535       -0.1488508419
H         -0.1783304141       -0.5319814646       -1.1044285826
H          0.5975075965        0.9449519129       -1.6752865992
 31
       -32.33931683
C          5.5697751116       -0.5869681697       -1.3134475804
C          5.0505811342        0.7694346806       -0.8455482542
C          6.1017557380        1.4785667684        0.0032490691
C          6.4924290175        0.6155275901        1.1994013837
C          7.0113738957       -0.7409689982        0.7315598794
C          5.9603905982       -1.4501833901       -0.1173786605
H          6.3469046012       -2.4118884642       -0.4622174860
H          5.0747416199       -1.6447320595        0.4923276914
H          7.2716601345       -1.3580865177        1.5944086369
H          7.9175750658       -0.5962857905        0.1383523941
H          7.2574185554        1.1231656713        1.7911671254
H          5.6186818934        0.4673348483        1.8385368717
H          5.7152054401        2.4401435652        0.3481550041
H          6.9873979514        1.6732541882       -0.6065036056
H          4.7901644560        1.3865561870       -1.7084096528
H          4.1444927802        0.6248239595       -0.2521941371
H          4.8050646316       -1.0947485677       -1.9055684616
H          6.4436670925       -0.4384592800       -1.9524363383
BI        -2.5744851401       -0.0881586810       -0.2973616443
C         -3.0181530421       -1.5617093222        1.3684181777
*