!PBE D3 def2-QZVPP

%pal nprocs 8 end

*xyz 0 1
C        -17.4146121451        0.1594906612        0.0757669851
C        -16.7829116383       -1.1192070254       -0.4665359343
C        -15.4196519788       -1.3549424362        0.1770154681
C        -14.5010324905       -0.1613274967       -0.0672352557
C        -15.1326695996        1.1176029309        0.4746315148
C        -16.4961495494        1.3532157084       -0.1685266516
H        -16.9481855682        2.2605437259        0.2383313617
H        -16.3683506596        1.4965988043       -1.2442165671
H        -14.4765856111        1.9688123540        0.2794130258
H        -15.2539895798        1.0301763476        1.5570511610
H        -13.5341322752       -0.3311733841        0.4116889869
H        -14.3280335557       -0.0522188001       -1.1406268319
H        -14.9675679770       -2.2623811021       -0.2295431853
H        -15.5477927593       -1.4981127330        1.2526872997
H        -17.4390465582       -1.9705359987       -0.2720047099
H        -16.6611810346       -1.0311989162       -1.5488606906
H        -18.3816871397        0.3293570980       -0.4027945961
H        -17.5872311620        0.0501165359        1.1491842093
BI         6.8009437013       -0.0885528910       -0.3157562276
C          6.2039760312        1.9467686264        0.4998873140
H          5.5300354548        1.8201277071        1.3354405111
H          7.0894215191        2.4675026600        0.8363486428
H          5.7140065751        2.5357250572       -0.2654162206
C          8.8259457153        0.0144962152        0.7029145371
H          8.6815994337        0.3147661245        1.7307727616
H          9.4568305221        0.7390014462        0.2044787963
H          9.3085331934       -0.9540055336        0.6778176321
C          5.8889732876       -1.2114968951        1.4364519829
H          6.6807317427       -1.5713786872        2.0782040749
H          5.3032753395       -2.0528957273        1.0877954623
H          5.2513887726       -0.5459400088        2.0012373654
*