!PBE D3 def2-QZVPP

%pal nprocs 8 end

*xyz 0 1
H         -6.0312621359       -1.5902028096       -1.4367629278
 31
       -32.33905731
C         10.8573035165        1.1502905445        0.6958481692
C         10.1124033385        0.0449674370        1.4385620972
C         10.2781020754       -1.2886188931        0.7158341256
C          9.7784948632       -1.1817496811       -0.7219455340
C         10.5233742577       -0.0764221102       -1.4646690641
C         10.3576850709        1.2571556378       -0.7419278432
H         10.9083397089        2.0384248253       -1.2706232792
H          9.3014384056        1.5369470800       -0.7375456754
H         10.1471210276        0.0045532746       -2.4869093797
H         11.5851463081       -0.3290039078       -1.5180800874
H          9.9171894372       -2.1352645687       -1.2364250266
H          8.7092455699       -0.9567307458       -0.7171269606
H          9.7274121843       -2.0698635280        1.2445267754
H         11.3343602775       -1.5684557184        0.7114885610
H         10.4885791476       -0.0359853829        2.4608527039
H          9.0506463882        0.2975482459        1.4918669854
H         10.7186139770        2.1038079856        1.2103334442
H         11.9265789726        0.9252646087        0.6910384201
BI        -4.6243274710        0.0017602018        0.2727421720
C         -5.1645720302        1.0149998932       -1.6827222410
H         -6.0432366618        0.5509906931       -2.1111922006
H         -5.3616170866        2.0661853514       -1.5175184084
H         -4.3373560423        0.9121545352       -2.3700177261
C         -3.9038882117       -1.8594878462       -0.8043469191
H         -3.3142562477       -1.5632519484       -1.6598548039
H         -4.7480011643       -2.4474787993       -1.1402347642
H         -3.2934722878       -2.4590343689       -0.1418648555
C         -2.5449610014        0.9068159439        0.2533390693
*