!PBE D3 def2-QZVPP

%pal nprocs 8 end

*xyz 0 1
C          0.2815135617       -0.3556792183        1.0288806111
H          0.0699516076        0.3676179221        1.8056222936
H          0.4893861846       -1.3137304137        1.4830970377
H         -0.5812791931       -0.4485560249        0.3832978661
 31
       -32.34055061
C          4.4083676783       -1.0231678087       -1.0487296958
C          3.5315354280        0.2141430293       -0.8822313659
C          4.3654777452        1.4010122514       -0.4091617662
C          5.0698396839        1.0670244709        0.9024883506
C          5.9469665369       -0.1705269003        0.7369530611
C          5.1117434000       -1.3565288265        0.2636520719
H          5.7499031743       -2.2333301771        0.1326510226
H          4.3639031173       -1.5972595607        1.0231181434
H          6.4335369966       -0.4119808259        1.6846221842
H          6.7293143118        0.0363797626        0.0026196107
H          5.6786935593        1.9146004993        1.2250060193
H          4.3212476071        0.8789627851        1.6758301942
H          3.7253611867        2.2759761951       -0.2751993219
H          5.1119422560        1.6456496682       -1.1688748455
H          3.0423210367        0.4552012634       -1.8288720401
H          2.7525627782        0.0061461722       -0.1459108027
H          3.7989190897       -1.8706736959       -1.3708125771
H          5.1567122299       -0.8359338319       -1.8226994109
BI        -2.0441091927       -0.1513406935       -0.2696085166
C         -2.8758899268       -1.1007975392        1.6146946601
H         -2.4039279994       -2.0586401328        1.7904460703
H         -2.6777318774       -0.4479296434        2.4524163278
H         -3.9444012368       -1.2426699089        1.5192262714
C         -3.0068232406        1.8411893772        0.2260938618
H         -2.7998312605        2.0818201801        1.2588301559
*