!PBE D3 def2-QZVPP

%pal nprocs 8 end

*xyz 0 1
        -32.34383944
 C          3.7208157076        0.0407011534        1.3175015262
 C          3.7824967482        1.2663671452        0.4111236363
 C          2.6458927755        1.2335657860       -0.6059065325
 C          2.7018825826       -0.0475074422       -1.4329385971
 C          2.6561307308       -1.2763242680       -0.5294321025
 C          3.7925601544       -1.2375213707        0.4876641036
 H          3.7367034903       -2.1107808013        1.1413487071
 H          4.7501271287       -1.2735012808       -0.0372909714
 H          2.7285622998       -2.1835132291       -1.1335848076
 H          1.6997672218       -1.3022161924       -0.0014457037
 H          1.8658000909       -0.0721506479       -2.1355036356
 H          3.6272126655       -0.0615451748       -2.0140363437
 H          2.7104995071        2.1027015595       -1.2643384288
 H          1.6894904024        1.2834823995       -0.0800514668
 H          3.7192441162        2.1774223455        1.0102543953
 H          4.7399165510        1.2780533591       -0.1152059316
 H          4.5443200759        0.0658772499        2.0345495819
 H          2.7846936697        0.0542267884        1.8814188979
 BI        -1.1648508986       -0.0056242369        0.2783976821
 C         -1.2458966576        1.6500365376       -1.2688648883
 H         -0.3521247384        1.6314728565       -1.8782687904
 H         -2.1095595482        1.4963767313       -1.8995847088
 H         -1.3257806460        2.6146343027       -0.7844901507
 C         -3.4177696834        0.0185278757        0.5374185359
 H         -3.8824641000       -0.0110147511       -0.4375883433
 H         -3.7231794134        0.9212878448        1.0500737567
 H         -3.7378634268       -0.8420279885        1.1103536459
 C         -1.2879582483       -1.6040820959       -1.3250138061
 H         -1.5546945344       -2.5546988138       -0.8820150085
 H         -0.3368783599       -1.7025514398       -1.8316418750
 H         -2.0453103568       -1.3208918600       -2.0416358376
*