!PBE D3 def2-QZVPP

%pal nprocs 8 end

*xyz 0 1
H         -2.2309989072        2.5283662828        1.0388357371
H         -1.8615990764        1.2694157122        2.2161368461
C         -0.0082336514        0.0297637066       -0.0608954217
H          0.2469546611       -0.0390255107        0.9868712278
H          0.3972618432        0.9466592805       -0.4683532415
H          0.4166632216       -0.8141175382       -0.5885605541
 31
       -32.34046970
C         -6.0081480119        0.3849003622        0.1410850049
C         -5.6058003868       -1.0166375177       -0.3084637004
C         -4.2522911008       -1.3985459982        0.2836066612
C         -3.1864842343       -0.3829988679       -0.1189450595
C         -3.5892884103        1.0186404087        0.3300867308
C         -4.9430743297        1.4004444452       -0.2620716520
H         -5.2310221015        2.3972214365        0.0792390902
H         -4.8662351780        1.4293127848       -1.3516292301
H         -2.8303397394        1.7412774759        0.0216157737
H         -3.6520903755        1.0442724566        1.4206367449
H         -2.2256433333       -0.6549360899        0.3247670166
H         -3.0682981055       -0.3942787755       -1.2051712044
H         -3.9647113475       -2.3954129509       -0.0577357784
H         -4.3306496506       -1.4276887488        1.3730623998
H         -6.3645182770       -1.7390963834        0.0004335638
H         -5.5436126168       -1.0427927703       -1.3990337345
H         -6.9686845284        0.6567280670       -0.3021716743
H         -6.1260230447        0.3967023098        1.2273179012
BI         1.6389268492        0.0067703457       -0.0145361132
C          2.8504224143       -1.7034941882        0.8510426500
H          3.9016213466       -1.4651374524        0.7751501536
H          2.5937490727       -1.8516730486        1.8918988940
H          2.6522093957       -2.6147200869        0.3019983558
*