!PBE D3 def2-QZVPP

%pal nprocs 8 end

*xyz 0 1
H         -4.0033850784       -1.9888196617        1.2349945708
H         -2.2829790760       -2.3557540221        1.3692842534
C         -4.0194789103        1.4318874869        0.5654153323
H         -3.8577833996        1.5031910992        1.6312666253
H         -5.0396913106        1.1222557351        0.3802868790
H         -3.8545392112        2.4017429670        0.1147400537
C         -0.8334451791        0.8027531000        0.8509408488
H          0.0108901124        0.1262043143        0.8326067080
H         -1.1360109292        0.9661393319        1.8751632314
H         -0.5424577969        1.7474563624        0.4107149765
 31
       -32.33927327
C         -5.5641202728       -1.3237867592        0.3378113080
C         -6.9304314552       -1.1657053330       -0.3228450619
C         -6.9937430663        0.1390994337       -1.1113313683
C         -6.7010605543        1.3275898541       -0.2002483311
C         -5.3347486657        1.1694213815        0.4603987963
C         -5.2715230320       -0.1353389670        1.2489957601
H         -4.2847553951       -0.2484518971        1.7036853304
H         -6.0097326123       -0.1070698810        2.0541662067
H         -5.1415725145        2.0154620522        1.1237753640
H         -4.5594111377        1.1641393496       -0.3095093846
H         -6.7311602107        2.2550221180       -0.7764673018
H         -7.4712304944        1.3888062207        0.5724945631
H         -7.9804813507        0.2522027443       -1.5658962485
H         -6.2557052403        0.1108160704       -1.9165689007
H         -7.1236242657       -2.0116712090       -0.9862484997
H         -7.7057712127       -1.1606494241        0.4471216947
H         -5.5339775269       -2.2513547441        0.9139062016
H         -4.7939839033       -1.3846655409       -0.4349326507
BI         2.5551163664       -0.0205381093        0.2935394507
*