!PBE D3 def2-QZVPP

%pal nprocs 8 end

*xyz 0 1
H         -7.4822287768       -2.3368804710        0.3392829178
H         -8.0863339069       -1.2325509883        1.5775083418
BI         3.5733437649        0.1165895224       -0.3182286468
C          1.5807025945       -0.0389154185        0.7528971324
H          1.1304568951        0.9406144001        0.8465407911
H          0.9114421381       -0.6872509359        0.2026834787
H          1.7440313151       -0.4507296313        1.7382946625
C          4.5668407128        1.0302366776        1.5040215842
H          4.2637271417        2.0629859810        1.6161501744
H          5.6431966996        0.9839856899        1.4028406202
H          4.2682286545        0.4749408641        2.3814029251
C          4.1625092426       -1.9785764055        0.3196594460
H          3.5857808218       -2.7106683156       -0.2302432885
H          3.9654584678       -2.0916888762        1.3759293722
H          5.2159339188       -2.1431896666        0.1345328114
 31
       -32.33908572
C         -9.1118777235       -0.9248835116       -0.5381475920
C         -9.4555489431        0.5438420627       -0.3079552522
C         -8.2036943128        1.4087548993       -0.4220693504
C         -7.1435561701        0.9466882951        0.5733318645
C         -6.7999232691       -0.5220474743        0.3431619714
C         -8.0517663727       -1.3869516639        0.4572940370
H         -7.7994264685       -2.4337384439        0.2737439066
H         -8.4514958049       -1.3121336745        1.4715224864
H         -6.0537255916       -0.8485841231        1.0709340659
H         -6.3686765438       -0.6402621654       -0.6538209207
H         -6.2451817169        1.5596610914        0.4722390142
H         -7.5227803545        1.0740591122        1.5901922746
H         -8.4560834105        2.4555390230       -0.2385585828
H         -7.8040267594        1.3339019466       -1.4362794661
*